; benchmark generated from python API
(set-info :status unknown)
(declare-fun cell_1_2 () Int)
(declare-fun cell_1_6 () Int)
(declare-fun cell_2_1 () Int)
(declare-fun cell_2_6 () Int)
(declare-fun cell_3_8 () Int)
(declare-fun cell_3_9 () Int)
(declare-fun cell_4_4 () Int)
(declare-fun cell_5_3 () Int)
(declare-fun cell_6_8 () Int)
(declare-fun cell_7_5 () Int)
(declare-fun cell_8_7 () Int)
(declare-fun cell_9_1 () Int)
(declare-fun cell_1_1 () Int)
(declare-fun cell_3_1 () Int)
(declare-fun cell_4_1 () Int)
(declare-fun cell_5_1 () Int)
(declare-fun cell_6_1 () Int)
(declare-fun cell_7_1 () Int)
(declare-fun cell_8_1 () Int)
(declare-fun cell_2_2 () Int)
(declare-fun cell_3_2 () Int)
(declare-fun cell_4_2 () Int)
(declare-fun cell_5_2 () Int)
(declare-fun cell_6_2 () Int)
(declare-fun cell_7_2 () Int)
(declare-fun cell_8_2 () Int)
(declare-fun cell_9_2 () Int)
(declare-fun cell_1_3 () Int)
(declare-fun cell_2_3 () Int)
(declare-fun cell_3_3 () Int)
(declare-fun cell_4_3 () Int)
(declare-fun cell_6_3 () Int)
(declare-fun cell_7_3 () Int)
(declare-fun cell_8_3 () Int)
(declare-fun cell_9_3 () Int)
(declare-fun cell_1_4 () Int)
(declare-fun cell_2_4 () Int)
(declare-fun cell_3_4 () Int)
(declare-fun cell_5_4 () Int)
(declare-fun cell_6_4 () Int)
(declare-fun cell_7_4 () Int)
(declare-fun cell_8_4 () Int)
(declare-fun cell_9_4 () Int)
(declare-fun cell_1_5 () Int)
(declare-fun cell_2_5 () Int)
(declare-fun cell_3_5 () Int)
(declare-fun cell_4_5 () Int)
(declare-fun cell_5_5 () Int)
(declare-fun cell_6_5 () Int)
(declare-fun cell_8_5 () Int)
(declare-fun cell_9_5 () Int)
(declare-fun cell_3_6 () Int)
(declare-fun cell_4_6 () Int)
(declare-fun cell_5_6 () Int)
(declare-fun cell_6_6 () Int)
(declare-fun cell_7_6 () Int)
(declare-fun cell_8_6 () Int)
(declare-fun cell_9_6 () Int)
(declare-fun cell_1_7 () Int)
(declare-fun cell_2_7 () Int)
(declare-fun cell_3_7 () Int)
(declare-fun cell_4_7 () Int)
(declare-fun cell_5_7 () Int)
(declare-fun cell_6_7 () Int)
(declare-fun cell_7_7 () Int)
(declare-fun cell_9_7 () Int)
(declare-fun cell_1_8 () Int)
(declare-fun cell_2_8 () Int)
(declare-fun cell_4_8 () Int)
(declare-fun cell_5_8 () Int)
(declare-fun cell_7_8 () Int)
(declare-fun cell_8_8 () Int)
(declare-fun cell_9_8 () Int)
(declare-fun cell_1_9 () Int)
(declare-fun cell_2_9 () Int)
(declare-fun cell_4_9 () Int)
(declare-fun cell_5_9 () Int)
(declare-fun cell_6_9 () Int)
(declare-fun cell_7_9 () Int)
(declare-fun cell_8_9 () Int)
(declare-fun cell_9_9 () Int)
(assert
 (= cell_1_2 1))
(assert
 (= cell_1_6 2))
(assert
 (= cell_2_1 2))
(assert
 (= cell_2_6 1))
(assert
 (= cell_3_8 2))
(assert
 (= cell_3_9 1))
(assert
 (= cell_4_4 1))
(assert
 (= cell_5_3 1))
(assert
 (= cell_6_8 1))
(assert
 (= cell_7_5 1))
(assert
 (= cell_8_7 1))
(assert
 (= cell_9_1 1))
(assert
 (let (($x7650 (= cell_1_1 9)))
 (let (($x1489 (= cell_1_1 8)))
 (let (($x3141 (= cell_1_1 7)))
 (let (($x1903 (= cell_1_1 6)))
 (let (($x2896 (= cell_1_1 5)))
 (let (($x1648 (= cell_1_1 4)))
 (let (($x3138 (= cell_1_1 3)))
 (let (($x681 (= cell_1_1 2)))
 (let (($x2419 (= cell_1_1 1)))
 (or $x2419 $x681 $x3138 $x1648 $x2896 $x1903 $x3141 $x1489 $x7650)))))))))))
(assert
 (let (($x1894 (= cell_2_1 2)))
 (or (= cell_2_1 1) $x1894 (= cell_2_1 3) (= cell_2_1 4) (= cell_2_1 5) (= cell_2_1 6) (= cell_2_1 7) (= cell_2_1 8) (= cell_2_1 9))))
(assert
 (let (($x2355 (= cell_3_1 9)))
 (let (($x7658 (= cell_3_1 8)))
 (let (($x2862 (= cell_3_1 7)))
 (let (($x4101 (= cell_3_1 6)))
 (let (($x534 (= cell_3_1 5)))
 (let (($x2940 (= cell_3_1 4)))
 (let (($x1130 (= cell_3_1 3)))
 (let (($x1122 (= cell_3_1 2)))
 (let (($x1820 (= cell_3_1 1)))
 (or $x1820 $x1122 $x1130 $x2940 $x534 $x4101 $x2862 $x7658 $x2355)))))))))))
(assert
 (let (($x1153 (= cell_4_1 9)))
 (let (($x3521 (= cell_4_1 8)))
 (let (($x1195 (= cell_4_1 7)))
 (let (($x1550 (= cell_4_1 6)))
 (let (($x453 (= cell_4_1 5)))
 (let (($x2880 (= cell_4_1 4)))
 (let (($x1957 (= cell_4_1 3)))
 (let (($x3832 (= cell_4_1 2)))
 (let (($x406 (= cell_4_1 1)))
 (or $x406 $x3832 $x1957 $x2880 $x453 $x1550 $x1195 $x3521 $x1153)))))))))))
(assert
 (let (($x277 (= cell_5_1 9)))
 (let (($x2363 (= cell_5_1 8)))
 (let (($x2081 (= cell_5_1 7)))
 (let (($x1644 (= cell_5_1 6)))
 (let (($x1845 (= cell_5_1 5)))
 (let (($x1547 (= cell_5_1 4)))
 (let (($x2653 (= cell_5_1 3)))
 (let (($x2941 (= cell_5_1 2)))
 (let (($x1721 (= cell_5_1 1)))
 (or $x1721 $x2941 $x2653 $x1547 $x1845 $x1644 $x2081 $x2363 $x277)))))))))))
(assert
 (let (($x3854 (= cell_6_1 9)))
 (let (($x546 (= cell_6_1 8)))
 (let (($x1639 (= cell_6_1 7)))
 (let (($x1461 (= cell_6_1 6)))
 (let (($x1219 (= cell_6_1 5)))
 (let (($x1118 (= cell_6_1 4)))
 (let (($x3760 (= cell_6_1 3)))
 (let (($x3047 (= cell_6_1 2)))
 (let (($x2303 (= cell_6_1 1)))
 (or $x2303 $x3047 $x3760 $x1118 $x1219 $x1461 $x1639 $x546 $x3854)))))))))))
(assert
 (let (($x454 (= cell_7_1 9)))
 (let (($x2312 (= cell_7_1 8)))
 (let (($x2474 (= cell_7_1 7)))
 (let (($x2748 (= cell_7_1 6)))
 (let (($x345 (= cell_7_1 5)))
 (let (($x393 (= cell_7_1 4)))
 (let (($x3472 (= cell_7_1 3)))
 (let (($x2454 (= cell_7_1 2)))
 (let (($x732 (= cell_7_1 1)))
 (or $x732 $x2454 $x3472 $x393 $x345 $x2748 $x2474 $x2312 $x454)))))))))))
(assert
 (let (($x828 (= cell_8_1 9)))
 (let (($x2705 (= cell_8_1 8)))
 (let (($x2362 (= cell_8_1 7)))
 (let (($x895 (= cell_8_1 6)))
 (let (($x3313 (= cell_8_1 5)))
 (let (($x2007 (= cell_8_1 4)))
 (let (($x3503 (= cell_8_1 3)))
 (let (($x3083 (= cell_8_1 2)))
 (let (($x793 (= cell_8_1 1)))
 (or $x793 $x3083 $x3503 $x2007 $x3313 $x895 $x2362 $x2705 $x828)))))))))))
(assert
 (let (($x1058 (= cell_9_1 1)))
 (or $x1058 (= cell_9_1 2) (= cell_9_1 3) (= cell_9_1 4) (= cell_9_1 5) (= cell_9_1 6) (= cell_9_1 7) (= cell_9_1 8) (= cell_9_1 9))))
(assert
 (let (($x447 (= cell_1_2 1)))
 (or $x447 (= cell_1_2 2) (= cell_1_2 3) (= cell_1_2 4) (= cell_1_2 5) (= cell_1_2 6) (= cell_1_2 7) (= cell_1_2 8) (= cell_1_2 9))))
(assert
 (let (($x2402 (= cell_2_2 9)))
 (let (($x2313 (= cell_2_2 8)))
 (let (($x1003 (= cell_2_2 7)))
 (let (($x2185 (= cell_2_2 6)))
 (let (($x4043 (= cell_2_2 5)))
 (let (($x2678 (= cell_2_2 4)))
 (let (($x290 (= cell_2_2 3)))
 (let (($x1084 (= cell_2_2 2)))
 (let (($x1354 (= cell_2_2 1)))
 (or $x1354 $x1084 $x290 $x2678 $x4043 $x2185 $x1003 $x2313 $x2402)))))))))))
(assert
 (let (($x3333 (= cell_3_2 9)))
 (let (($x1830 (= cell_3_2 8)))
 (let (($x4075 (= cell_3_2 7)))
 (let (($x3284 (= cell_3_2 6)))
 (let (($x694 (= cell_3_2 5)))
 (let (($x814 (= cell_3_2 4)))
 (let (($x1799 (= cell_3_2 3)))
 (let (($x1344 (= cell_3_2 2)))
 (let (($x1775 (= cell_3_2 1)))
 (or $x1775 $x1344 $x1799 $x814 $x694 $x3284 $x4075 $x1830 $x3333)))))))))))
(assert
 (let (($x3445 (= cell_4_2 9)))
 (let (($x2830 (= cell_4_2 8)))
 (let (($x3341 (= cell_4_2 7)))
 (let (($x2865 (= cell_4_2 6)))
 (let (($x2931 (= cell_4_2 5)))
 (let (($x2020 (= cell_4_2 4)))
 (let (($x903 (= cell_4_2 3)))
 (let (($x285 (= cell_4_2 2)))
 (let (($x3766 (= cell_4_2 1)))
 (or $x3766 $x285 $x903 $x2020 $x2931 $x2865 $x3341 $x2830 $x3445)))))))))))
(assert
 (let (($x3089 (= cell_5_2 9)))
 (let (($x97 (= cell_5_2 8)))
 (let (($x3815 (= cell_5_2 7)))
 (let (($x2898 (= cell_5_2 6)))
 (let (($x3197 (= cell_5_2 5)))
 (let (($x2136 (= cell_5_2 4)))
 (let (($x2221 (= cell_5_2 3)))
 (let (($x993 (= cell_5_2 2)))
 (let (($x2009 (= cell_5_2 1)))
 (or $x2009 $x993 $x2221 $x2136 $x3197 $x2898 $x3815 $x97 $x3089)))))))))))
(assert
 (let (($x2535 (= cell_6_2 9)))
 (let (($x29 (= cell_6_2 8)))
 (let (($x397 (= cell_6_2 7)))
 (let (($x1924 (= cell_6_2 6)))
 (let (($x3968 (= cell_6_2 5)))
 (let (($x2343 (= cell_6_2 4)))
 (let (($x1200 (= cell_6_2 3)))
 (let (($x747 (= cell_6_2 2)))
 (let (($x11 (= cell_6_2 1)))
 (or $x11 $x747 $x1200 $x2343 $x3968 $x1924 $x397 $x29 $x2535)))))))))))
(assert
 (let (($x4151 (= cell_7_2 9)))
 (let (($x1621 (= cell_7_2 8)))
 (let (($x1509 (= cell_7_2 7)))
 (let (($x1413 (= cell_7_2 6)))
 (let (($x7845 (= cell_7_2 5)))
 (let (($x2682 (= cell_7_2 4)))
 (let (($x2213 (= cell_7_2 3)))
 (let (($x3403 (= cell_7_2 2)))
 (let (($x3814 (= cell_7_2 1)))
 (or $x3814 $x3403 $x2213 $x2682 $x7845 $x1413 $x1509 $x1621 $x4151)))))))))))
(assert
 (let (($x1896 (= cell_8_2 9)))
 (let (($x2789 (= cell_8_2 8)))
 (let (($x287 (= cell_8_2 7)))
 (let (($x2298 (= cell_8_2 6)))
 (let (($x4016 (= cell_8_2 5)))
 (let (($x7865 (= cell_8_2 4)))
 (let (($x2774 (= cell_8_2 3)))
 (let (($x801 (= cell_8_2 2)))
 (let (($x1049 (= cell_8_2 1)))
 (or $x1049 $x801 $x2774 $x7865 $x4016 $x2298 $x287 $x2789 $x1896)))))))))))
(assert
 (let (($x2537 (= cell_9_2 2)))
 (let (($x74 (= cell_9_2 1)))
 (or $x74 $x2537 (= cell_9_2 3) (= cell_9_2 4) (= cell_9_2 5) (= cell_9_2 6) (= cell_9_2 7) (= cell_9_2 8) (= cell_9_2 9)))))
(assert
 (let (($x3916 (= cell_1_3 9)))
 (let (($x525 (= cell_1_3 8)))
 (let (($x1407 (= cell_1_3 7)))
 (let (($x3460 (= cell_1_3 6)))
 (let (($x3990 (= cell_1_3 5)))
 (let (($x283 (= cell_1_3 4)))
 (let (($x1154 (= cell_1_3 3)))
 (let (($x3136 (= cell_1_3 2)))
 (let (($x171 (= cell_1_3 1)))
 (or $x171 $x3136 $x1154 $x283 $x3990 $x3460 $x1407 $x525 $x3916)))))))))))
(assert
 (let (($x2472 (= cell_2_3 9)))
 (let (($x1236 (= cell_2_3 8)))
 (let (($x2550 (= cell_2_3 7)))
 (let (($x2110 (= cell_2_3 6)))
 (let (($x2346 (= cell_2_3 5)))
 (let (($x996 (= cell_2_3 4)))
 (let (($x2824 (= cell_2_3 3)))
 (let (($x3076 (= cell_2_3 2)))
 (let (($x2169 (= cell_2_3 1)))
 (or $x2169 $x3076 $x2824 $x996 $x2346 $x2110 $x2550 $x1236 $x2472)))))))))))
(assert
 (let (($x2405 (= cell_3_3 9)))
 (let (($x3189 (= cell_3_3 8)))
 (let (($x3675 (= cell_3_3 7)))
 (let (($x1889 (= cell_3_3 6)))
 (let (($x715 (= cell_3_3 5)))
 (let (($x816 (= cell_3_3 4)))
 (let (($x2785 (= cell_3_3 3)))
 (let (($x2743 (= cell_3_3 2)))
 (let (($x2287 (= cell_3_3 1)))
 (or $x2287 $x2743 $x2785 $x816 $x715 $x1889 $x3675 $x3189 $x2405)))))))))))
(assert
 (let (($x3399 (= cell_4_3 9)))
 (let (($x2269 (= cell_4_3 8)))
 (let (($x2599 (= cell_4_3 7)))
 (let (($x4061 (= cell_4_3 6)))
 (let (($x2451 (= cell_4_3 5)))
 (let (($x2778 (= cell_4_3 4)))
 (let (($x382 (= cell_4_3 3)))
 (let (($x1141 (= cell_4_3 2)))
 (let (($x3254 (= cell_4_3 1)))
 (or $x3254 $x1141 $x382 $x2778 $x2451 $x4061 $x2599 $x2269 $x3399)))))))))))
(assert
 (let (($x3186 (= cell_5_3 1)))
 (or $x3186 (= cell_5_3 2) (= cell_5_3 3) (= cell_5_3 4) (= cell_5_3 5) (= cell_5_3 6) (= cell_5_3 7) (= cell_5_3 8) (= cell_5_3 9))))
(assert
 (let (($x2875 (= cell_6_3 9)))
 (let (($x1866 (= cell_6_3 8)))
 (let (($x2214 (= cell_6_3 7)))
 (let (($x899 (= cell_6_3 6)))
 (let (($x2489 (= cell_6_3 5)))
 (let (($x3405 (= cell_6_3 4)))
 (let (($x1055 (= cell_6_3 3)))
 (let (($x538 (= cell_6_3 2)))
 (let (($x3382 (= cell_6_3 1)))
 (or $x3382 $x538 $x1055 $x3405 $x2489 $x899 $x2214 $x1866 $x2875)))))))))))
(assert
 (let (($x3242 (= cell_7_3 9)))
 (let (($x3045 (= cell_7_3 8)))
 (let (($x804 (= cell_7_3 7)))
 (let (($x1664 (= cell_7_3 6)))
 (let (($x2376 (= cell_7_3 5)))
 (let (($x885 (= cell_7_3 4)))
 (let (($x631 (= cell_7_3 3)))
 (let (($x133 (= cell_7_3 2)))
 (let (($x452 (= cell_7_3 1)))
 (or $x452 $x133 $x631 $x885 $x2376 $x1664 $x804 $x3045 $x3242)))))))))))
(assert
 (let (($x257 (= cell_8_3 9)))
 (let (($x874 (= cell_8_3 8)))
 (let (($x837 (= cell_8_3 7)))
 (let (($x3608 (= cell_8_3 6)))
 (let (($x775 (= cell_8_3 5)))
 (let (($x240 (= cell_8_3 4)))
 (let (($x3342 (= cell_8_3 3)))
 (let (($x2172 (= cell_8_3 2)))
 (let (($x144 (= cell_8_3 1)))
 (or $x144 $x2172 $x3342 $x240 $x775 $x3608 $x837 $x874 $x257)))))))))))
(assert
 (let (($x324 (= cell_9_3 1)))
 (or $x324 (= cell_9_3 2) (= cell_9_3 3) (= cell_9_3 4) (= cell_9_3 5) (= cell_9_3 6) (= cell_9_3 7) (= cell_9_3 8) (= cell_9_3 9))))
(assert
 (let (($x1582 (= cell_1_4 9)))
 (let (($x3412 (= cell_1_4 8)))
 (let (($x80 (= cell_1_4 7)))
 (let (($x2617 (= cell_1_4 6)))
 (let (($x464 (= cell_1_4 5)))
 (let (($x724 (= cell_1_4 4)))
 (let (($x1020 (= cell_1_4 3)))
 (let (($x3888 (= cell_1_4 2)))
 (let (($x1478 (= cell_1_4 1)))
 (or $x1478 $x3888 $x1020 $x724 $x464 $x2617 $x80 $x3412 $x1582)))))))))))
(assert
 (let (($x2468 (= cell_2_4 9)))
 (let (($x62 (= cell_2_4 8)))
 (let (($x912 (= cell_2_4 7)))
 (let (($x2487 (= cell_2_4 6)))
 (let (($x115 (= cell_2_4 5)))
 (let (($x2814 (= cell_2_4 4)))
 (let (($x622 (= cell_2_4 3)))
 (let (($x661 (= cell_2_4 2)))
 (let (($x1904 (= cell_2_4 1)))
 (or $x1904 $x661 $x622 $x2814 $x115 $x2487 $x912 $x62 $x2468)))))))))))
(assert
 (let (($x1524 (= cell_3_4 9)))
 (let (($x1487 (= cell_3_4 8)))
 (let (($x1287 (= cell_3_4 7)))
 (let (($x3693 (= cell_3_4 6)))
 (let (($x2763 (= cell_3_4 5)))
 (let (($x329 (= cell_3_4 4)))
 (let (($x774 (= cell_3_4 3)))
 (let (($x7848 (= cell_3_4 2)))
 (let (($x2444 (= cell_3_4 1)))
 (or $x2444 $x7848 $x774 $x329 $x2763 $x3693 $x1287 $x1487 $x1524)))))))))))
(assert
 (let (($x1647 (= cell_4_4 1)))
 (or $x1647 (= cell_4_4 2) (= cell_4_4 3) (= cell_4_4 4) (= cell_4_4 5) (= cell_4_4 6) (= cell_4_4 7) (= cell_4_4 8) (= cell_4_4 9))))
(assert
 (let (($x1085 (= cell_5_4 9)))
 (let (($x2919 (= cell_5_4 8)))
 (let (($x2593 (= cell_5_4 7)))
 (let (($x3988 (= cell_5_4 6)))
 (let (($x3615 (= cell_5_4 5)))
 (let (($x1481 (= cell_5_4 4)))
 (let (($x413 (= cell_5_4 3)))
 (let (($x1337 (= cell_5_4 2)))
 (let (($x448 (= cell_5_4 1)))
 (or $x448 $x1337 $x413 $x1481 $x3615 $x3988 $x2593 $x2919 $x1085)))))))))))
(assert
 (let (($x597 (= cell_6_4 9)))
 (let (($x2055 (= cell_6_4 8)))
 (let (($x799 (= cell_6_4 7)))
 (let (($x2856 (= cell_6_4 6)))
 (let (($x1802 (= cell_6_4 5)))
 (let (($x7962 (= cell_6_4 4)))
 (let (($x511 (= cell_6_4 3)))
 (let (($x1958 (= cell_6_4 2)))
 (let (($x1073 (= cell_6_4 1)))
 (or $x1073 $x1958 $x511 $x7962 $x1802 $x2856 $x799 $x2055 $x597)))))))))))
(assert
 (let (($x1781 (= cell_7_4 9)))
 (let (($x2813 (= cell_7_4 8)))
 (let (($x1934 (= cell_7_4 7)))
 (let (($x301 (= cell_7_4 6)))
 (let (($x2715 (= cell_7_4 5)))
 (let (($x925 (= cell_7_4 4)))
 (let (($x1349 (= cell_7_4 3)))
 (let (($x2076 (= cell_7_4 2)))
 (let (($x1529 (= cell_7_4 1)))
 (or $x1529 $x2076 $x1349 $x925 $x2715 $x301 $x1934 $x2813 $x1781)))))))))))
(assert
 (let (($x2450 (= cell_8_4 9)))
 (let (($x3598 (= cell_8_4 8)))
 (let (($x1274 (= cell_8_4 7)))
 (let (($x239 (= cell_8_4 6)))
 (let (($x3886 (= cell_8_4 5)))
 (let (($x2234 (= cell_8_4 4)))
 (let (($x893 (= cell_8_4 3)))
 (let (($x2520 (= cell_8_4 2)))
 (let (($x3559 (= cell_8_4 1)))
 (or $x3559 $x2520 $x893 $x2234 $x3886 $x239 $x1274 $x3598 $x2450)))))))))))
(assert
 (let (($x879 (= cell_9_4 1)))
 (or $x879 (= cell_9_4 2) (= cell_9_4 3) (= cell_9_4 4) (= cell_9_4 5) (= cell_9_4 6) (= cell_9_4 7) (= cell_9_4 8) (= cell_9_4 9))))
(assert
 (let (($x1030 (= cell_1_5 9)))
 (let (($x248 (= cell_1_5 8)))
 (let (($x421 (= cell_1_5 7)))
 (let (($x1161 (= cell_1_5 6)))
 (let (($x1135 (= cell_1_5 5)))
 (let (($x443 (= cell_1_5 4)))
 (let (($x3265 (= cell_1_5 3)))
 (let (($x3140 (= cell_1_5 2)))
 (let (($x2126 (= cell_1_5 1)))
 (or $x2126 $x3140 $x3265 $x443 $x1135 $x1161 $x421 $x248 $x1030)))))))))))
(assert
 (let (($x1393 (= cell_2_5 9)))
 (let (($x3777 (= cell_2_5 8)))
 (let (($x2420 (= cell_2_5 7)))
 (let (($x433 (= cell_2_5 6)))
 (let (($x1974 (= cell_2_5 5)))
 (let (($x2053 (= cell_2_5 4)))
 (let (($x2552 (= cell_2_5 3)))
 (let (($x2573 (= cell_2_5 2)))
 (let (($x535 (= cell_2_5 1)))
 (or $x535 $x2573 $x2552 $x2053 $x1974 $x433 $x2420 $x3777 $x1393)))))))))))
(assert
 (let (($x2264 (= cell_3_5 9)))
 (let (($x167 (= cell_3_5 8)))
 (let (($x520 (= cell_3_5 7)))
 (let (($x2190 (= cell_3_5 6)))
 (let (($x1302 (= cell_3_5 5)))
 (let (($x2876 (= cell_3_5 4)))
 (let (($x1604 (= cell_3_5 3)))
 (let (($x834 (= cell_3_5 2)))
 (let (($x2208 (= cell_3_5 1)))
 (or $x2208 $x834 $x1604 $x2876 $x1302 $x2190 $x520 $x167 $x2264)))))))))))
(assert
 (let (($x2043 (= cell_4_5 9)))
 (let (($x869 (= cell_4_5 8)))
 (let (($x2795 (= cell_4_5 7)))
 (let (($x2071 (= cell_4_5 6)))
 (let (($x703 (= cell_4_5 5)))
 (let (($x2226 (= cell_4_5 4)))
 (let (($x2568 (= cell_4_5 3)))
 (let (($x3216 (= cell_4_5 2)))
 (let (($x3400 (= cell_4_5 1)))
 (or $x3400 $x3216 $x2568 $x2226 $x703 $x2071 $x2795 $x869 $x2043)))))))))))
(assert
 (let (($x96 (= cell_5_5 9)))
 (let (($x806 (= cell_5_5 8)))
 (let (($x919 (= cell_5_5 7)))
 (let (($x3059 (= cell_5_5 6)))
 (let (($x2470 (= cell_5_5 5)))
 (let (($x997 (= cell_5_5 4)))
 (let (($x963 (= cell_5_5 3)))
 (let (($x438 (= cell_5_5 2)))
 (let (($x2987 (= cell_5_5 1)))
 (or $x2987 $x438 $x963 $x997 $x2470 $x3059 $x919 $x806 $x96)))))))))))
(assert
 (let (($x3606 (= cell_6_5 9)))
 (let (($x1920 (= cell_6_5 8)))
 (let (($x2106 (= cell_6_5 7)))
 (let (($x2398 (= cell_6_5 6)))
 (let (($x901 (= cell_6_5 5)))
 (let (($x2173 (= cell_6_5 4)))
 (let (($x7805 (= cell_6_5 3)))
 (let (($x2745 (= cell_6_5 2)))
 (let (($x1138 (= cell_6_5 1)))
 (or $x1138 $x2745 $x7805 $x2173 $x901 $x2398 $x2106 $x1920 $x3606)))))))))))
(assert
 (let (($x4170 (= cell_7_5 1)))
 (or $x4170 (= cell_7_5 2) (= cell_7_5 3) (= cell_7_5 4) (= cell_7_5 5) (= cell_7_5 6) (= cell_7_5 7) (= cell_7_5 8) (= cell_7_5 9))))
(assert
 (let (($x2669 (= cell_8_5 9)))
 (let (($x2792 (= cell_8_5 8)))
 (let (($x3570 (= cell_8_5 7)))
 (let (($x415 (= cell_8_5 6)))
 (let (($x1029 (= cell_8_5 5)))
 (let (($x577 (= cell_8_5 4)))
 (let (($x1977 (= cell_8_5 3)))
 (let (($x1570 (= cell_8_5 2)))
 (let (($x2604 (= cell_8_5 1)))
 (or $x2604 $x1570 $x1977 $x577 $x1029 $x415 $x3570 $x2792 $x2669)))))))))))
(assert
 (let (($x1484 (= cell_9_5 1)))
 (or $x1484 (= cell_9_5 2) (= cell_9_5 3) (= cell_9_5 4) (= cell_9_5 5) (= cell_9_5 6) (= cell_9_5 7) (= cell_9_5 8) (= cell_9_5 9))))
(assert
 (let (($x2635 (= cell_1_6 2)))
 (or (= cell_1_6 1) $x2635 (= cell_1_6 3) (= cell_1_6 4) (= cell_1_6 5) (= cell_1_6 6) (= cell_1_6 7) (= cell_1_6 8) (= cell_1_6 9))))
(assert
 (let (($x1185 (= cell_2_6 1)))
 (or $x1185 (= cell_2_6 2) (= cell_2_6 3) (= cell_2_6 4) (= cell_2_6 5) (= cell_2_6 6) (= cell_2_6 7) (= cell_2_6 8) (= cell_2_6 9))))
(assert
 (let (($x2985 (= cell_3_6 9)))
 (let (($x2914 (= cell_3_6 8)))
 (let (($x2289 (= cell_3_6 7)))
 (let (($x1590 (= cell_3_6 6)))
 (let (($x4174 (= cell_3_6 5)))
 (let (($x2731 (= cell_3_6 4)))
 (let (($x389 (= cell_3_6 3)))
 (let (($x3036 (= cell_3_6 2)))
 (let (($x51 (= cell_3_6 1)))
 (or $x51 $x3036 $x389 $x2731 $x4174 $x1590 $x2289 $x2914 $x2985)))))))))))
(assert
 (let (($x1926 (= cell_4_6 2)))
 (let (($x645 (= cell_4_6 1)))
 (or $x645 $x1926 (= cell_4_6 3) (= cell_4_6 4) (= cell_4_6 5) (= cell_4_6 6) (= cell_4_6 7) (= cell_4_6 8) (= cell_4_6 9)))))
(assert
 (let (($x503 (= cell_5_6 2)))
 (let (($x1096 (= cell_5_6 1)))
 (or $x1096 $x503 (= cell_5_6 3) (= cell_5_6 4) (= cell_5_6 5) (= cell_5_6 6) (= cell_5_6 7) (= cell_5_6 8) (= cell_5_6 9)))))
(assert
 (let (($x2177 (= cell_6_6 9)))
 (let (($x1690 (= cell_6_6 8)))
 (let (($x3560 (= cell_6_6 7)))
 (let (($x2325 (= cell_6_6 6)))
 (let (($x592 (= cell_6_6 5)))
 (let (($x7643 (= cell_6_6 4)))
 (let (($x1221 (= cell_6_6 3)))
 (let (($x1346 (= cell_6_6 2)))
 (let (($x2090 (= cell_6_6 1)))
 (or $x2090 $x1346 $x1221 $x7643 $x592 $x2325 $x3560 $x1690 $x2177)))))))))))
(assert
 (let (($x667 (= cell_7_6 9)))
 (let (($x941 (= cell_7_6 8)))
 (let (($x2796 (= cell_7_6 7)))
 (let (($x787 (= cell_7_6 6)))
 (let (($x3299 (= cell_7_6 5)))
 (let (($x2188 (= cell_7_6 4)))
 (let (($x1355 (= cell_7_6 3)))
 (let (($x3957 (= cell_7_6 2)))
 (let (($x22 (= cell_7_6 1)))
 (or $x22 $x3957 $x1355 $x2188 $x3299 $x787 $x2796 $x941 $x667)))))))))))
(assert
 (let (($x2338 (= cell_8_6 9)))
 (let (($x706 (= cell_8_6 8)))
 (let (($x259 (= cell_8_6 7)))
 (let (($x3522 (= cell_8_6 6)))
 (let (($x4003 (= cell_8_6 5)))
 (let (($x2189 (= cell_8_6 4)))
 (let (($x2650 (= cell_8_6 3)))
 (let (($x612 (= cell_8_6 2)))
 (let (($x2358 (= cell_8_6 1)))
 (or $x2358 $x612 $x2650 $x2189 $x4003 $x3522 $x259 $x706 $x2338)))))))))))
(assert
 (let (($x573 (= cell_9_6 2)))
 (let (($x1186 (= cell_9_6 1)))
 (or $x1186 $x573 (= cell_9_6 3) (= cell_9_6 4) (= cell_9_6 5) (= cell_9_6 6) (= cell_9_6 7) (= cell_9_6 8) (= cell_9_6 9)))))
(assert
 (let (($x2267 (= cell_1_7 9)))
 (let (($x606 (= cell_1_7 8)))
 (let (($x632 (= cell_1_7 7)))
 (let (($x4055 (= cell_1_7 6)))
 (let (($x2068 (= cell_1_7 5)))
 (let (($x1769 (= cell_1_7 4)))
 (let (($x490 (= cell_1_7 3)))
 (let (($x439 (= cell_1_7 2)))
 (let (($x3183 (= cell_1_7 1)))
 (or $x3183 $x439 $x490 $x1769 $x2068 $x4055 $x632 $x606 $x2267)))))))))))
(assert
 (let (($x1244 (= cell_2_7 9)))
 (let (($x1086 (= cell_2_7 8)))
 (let (($x1887 (= cell_2_7 7)))
 (let (($x543 (= cell_2_7 6)))
 (let (($x1002 (= cell_2_7 5)))
 (let (($x2406 (= cell_2_7 4)))
 (let (($x1181 (= cell_2_7 3)))
 (let (($x3720 (= cell_2_7 2)))
 (let (($x1297 (= cell_2_7 1)))
 (or $x1297 $x3720 $x1181 $x2406 $x1002 $x543 $x1887 $x1086 $x1244)))))))))))
(assert
 (let (($x388 (= cell_3_7 9)))
 (let (($x2199 (= cell_3_7 8)))
 (let (($x674 (= cell_3_7 7)))
 (let (($x70 (= cell_3_7 6)))
 (let (($x1796 (= cell_3_7 5)))
 (let (($x1720 (= cell_3_7 4)))
 (let (($x2010 (= cell_3_7 3)))
 (let (($x1340 (= cell_3_7 2)))
 (let (($x3012 (= cell_3_7 1)))
 (or $x3012 $x1340 $x2010 $x1720 $x1796 $x70 $x674 $x2199 $x388)))))))))))
(assert
 (let (($x2798 (= cell_4_7 9)))
 (let (($x222 (= cell_4_7 8)))
 (let (($x1707 (= cell_4_7 7)))
 (let (($x2296 (= cell_4_7 6)))
 (let (($x1176 (= cell_4_7 5)))
 (let (($x629 (= cell_4_7 4)))
 (let (($x2146 (= cell_4_7 3)))
 (let (($x757 (= cell_4_7 2)))
 (let (($x653 (= cell_4_7 1)))
 (or $x653 $x757 $x2146 $x629 $x1176 $x2296 $x1707 $x222 $x2798)))))))))))
(assert
 (let (($x2153 (= cell_5_7 9)))
 (let (($x241 (= cell_5_7 8)))
 (let (($x2925 (= cell_5_7 7)))
 (let (($x1089 (= cell_5_7 6)))
 (let (($x2884 (= cell_5_7 5)))
 (let (($x2386 (= cell_5_7 4)))
 (let (($x3694 (= cell_5_7 3)))
 (let (($x3070 (= cell_5_7 2)))
 (let (($x1776 (= cell_5_7 1)))
 (or $x1776 $x3070 $x3694 $x2386 $x2884 $x1089 $x2925 $x241 $x2153)))))))))))
(assert
 (let (($x3851 (= cell_6_7 9)))
 (let (($x2517 (= cell_6_7 8)))
 (let (($x2588 (= cell_6_7 7)))
 (let (($x7672 (= cell_6_7 6)))
 (let (($x361 (= cell_6_7 5)))
 (let (($x2370 (= cell_6_7 4)))
 (let (($x760 (= cell_6_7 3)))
 (let (($x3357 (= cell_6_7 2)))
 (let (($x1725 (= cell_6_7 1)))
 (or $x1725 $x3357 $x760 $x2370 $x361 $x7672 $x2588 $x2517 $x3851)))))))))))
(assert
 (let (($x2477 (= cell_7_7 9)))
 (let (($x112 (= cell_7_7 8)))
 (let (($x2316 (= cell_7_7 7)))
 (let (($x948 (= cell_7_7 6)))
 (let (($x2279 (= cell_7_7 5)))
 (let (($x3251 (= cell_7_7 4)))
 (let (($x1440 (= cell_7_7 3)))
 (let (($x2246 (= cell_7_7 2)))
 (let (($x1450 (= cell_7_7 1)))
 (or $x1450 $x2246 $x1440 $x3251 $x2279 $x948 $x2316 $x112 $x2477)))))))))))
(assert
 (let (($x797 (= cell_8_7 1)))
 (or $x797 (= cell_8_7 2) (= cell_8_7 3) (= cell_8_7 4) (= cell_8_7 5) (= cell_8_7 6) (= cell_8_7 7) (= cell_8_7 8) (= cell_8_7 9))))
(assert
 (let (($x1609 (= cell_9_7 1)))
 (or $x1609 (= cell_9_7 2) (= cell_9_7 3) (= cell_9_7 4) (= cell_9_7 5) (= cell_9_7 6) (= cell_9_7 7) (= cell_9_7 8) (= cell_9_7 9))))
(assert
 (let (($x2578 (= cell_1_8 9)))
 (let (($x2647 (= cell_1_8 8)))
 (let (($x135 (= cell_1_8 7)))
 (let (($x2634 (= cell_1_8 6)))
 (let (($x1979 (= cell_1_8 5)))
 (let (($x574 (= cell_1_8 4)))
 (let (($x1230 (= cell_1_8 3)))
 (let (($x2268 (= cell_1_8 2)))
 (let (($x798 (= cell_1_8 1)))
 (or $x798 $x2268 $x1230 $x574 $x1979 $x2634 $x135 $x2647 $x2578)))))))))))
(assert
 (let (($x1245 (= cell_2_8 9)))
 (let (($x1520 (= cell_2_8 8)))
 (let (($x348 (= cell_2_8 7)))
 (let (($x2342 (= cell_2_8 6)))
 (let (($x1514 (= cell_2_8 5)))
 (let (($x1377 (= cell_2_8 4)))
 (let (($x3631 (= cell_2_8 3)))
 (let (($x1027 (= cell_2_8 2)))
 (let (($x3716 (= cell_2_8 1)))
 (or $x3716 $x1027 $x3631 $x1377 $x1514 $x2342 $x348 $x1520 $x1245)))))))))))
(assert
 (let (($x2807 (= cell_3_8 2)))
 (or (= cell_3_8 1) $x2807 (= cell_3_8 3) (= cell_3_8 4) (= cell_3_8 5) (= cell_3_8 6) (= cell_3_8 7) (= cell_3_8 8) (= cell_3_8 9))))
(assert
 (let (($x1022 (= cell_4_8 9)))
 (let (($x966 (= cell_4_8 8)))
 (let (($x502 (= cell_4_8 7)))
 (let (($x2089 (= cell_4_8 6)))
 (let (($x621 (= cell_4_8 5)))
 (let (($x1758 (= cell_4_8 4)))
 (let (($x501 (= cell_4_8 3)))
 (let (($x2206 (= cell_4_8 2)))
 (let (($x2786 (= cell_4_8 1)))
 (or $x2786 $x2206 $x501 $x1758 $x621 $x2089 $x502 $x966 $x1022)))))))))))
(assert
 (let (($x1530 (= cell_5_8 9)))
 (let (($x3231 (= cell_5_8 8)))
 (let (($x976 (= cell_5_8 7)))
 (let (($x1033 (= cell_5_8 6)))
 (let (($x633 (= cell_5_8 5)))
 (let (($x3427 (= cell_5_8 4)))
 (let (($x295 (= cell_5_8 3)))
 (let (($x376 (= cell_5_8 2)))
 (let (($x2516 (= cell_5_8 1)))
 (or $x2516 $x376 $x295 $x3427 $x633 $x1033 $x976 $x3231 $x1530)))))))))))
(assert
 (let (($x1180 (= cell_6_8 1)))
 (or $x1180 (= cell_6_8 2) (= cell_6_8 3) (= cell_6_8 4) (= cell_6_8 5) (= cell_6_8 6) (= cell_6_8 7) (= cell_6_8 8) (= cell_6_8 9))))
(assert
 (let (($x83 (= cell_7_8 9)))
 (let (($x541 (= cell_7_8 8)))
 (let (($x1457 (= cell_7_8 7)))
 (let (($x2951 (= cell_7_8 6)))
 (let (($x7649 (= cell_7_8 5)))
 (let (($x1944 (= cell_7_8 4)))
 (let (($x3680 (= cell_7_8 3)))
 (let (($x3419 (= cell_7_8 2)))
 (let (($x3143 (= cell_7_8 1)))
 (or $x3143 $x3419 $x3680 $x1944 $x7649 $x2951 $x1457 $x541 $x83)))))))))))
(assert
 (let (($x752 (= cell_8_8 2)))
 (let (($x2464 (= cell_8_8 1)))
 (or $x2464 $x752 (= cell_8_8 3) (= cell_8_8 4) (= cell_8_8 5) (= cell_8_8 6) (= cell_8_8 7) (= cell_8_8 8) (= cell_8_8 9)))))
(assert
 (let (($x935 (= cell_9_8 2)))
 (let (($x2322 (= cell_9_8 1)))
 (or $x2322 $x935 (= cell_9_8 3) (= cell_9_8 4) (= cell_9_8 5) (= cell_9_8 6) (= cell_9_8 7) (= cell_9_8 8) (= cell_9_8 9)))))
(assert
 (let (($x181 (= cell_1_9 9)))
 (let (($x3646 (= cell_1_9 8)))
 (let (($x928 (= cell_1_9 7)))
 (let (($x2499 (= cell_1_9 6)))
 (let (($x2934 (= cell_1_9 5)))
 (let (($x3496 (= cell_1_9 4)))
 (let (($x1424 (= cell_1_9 3)))
 (let (($x1035 (= cell_1_9 2)))
 (let (($x1397 (= cell_1_9 1)))
 (or $x1397 $x1035 $x1424 $x3496 $x2934 $x2499 $x928 $x3646 $x181)))))))))))
(assert
 (let (($x3228 (= cell_2_9 9)))
 (let (($x2096 (= cell_2_9 8)))
 (let (($x2458 (= cell_2_9 7)))
 (let (($x1316 (= cell_2_9 6)))
 (let (($x1741 (= cell_2_9 5)))
 (let (($x2058 (= cell_2_9 4)))
 (let (($x456 (= cell_2_9 3)))
 (let (($x332 (= cell_2_9 2)))
 (let (($x1852 (= cell_2_9 1)))
 (or $x1852 $x332 $x456 $x2058 $x1741 $x1316 $x2458 $x2096 $x3228)))))))))))
(assert
 (let (($x2327 (= cell_3_9 1)))
 (or $x2327 (= cell_3_9 2) (= cell_3_9 3) (= cell_3_9 4) (= cell_3_9 5) (= cell_3_9 6) (= cell_3_9 7) (= cell_3_9 8) (= cell_3_9 9))))
(assert
 (let (($x87 (= cell_4_9 9)))
 (let (($x1133 (= cell_4_9 8)))
 (let (($x3965 (= cell_4_9 7)))
 (let (($x2476 (= cell_4_9 6)))
 (let (($x2258 (= cell_4_9 5)))
 (let (($x3980 (= cell_4_9 4)))
 (let (($x2031 (= cell_4_9 3)))
 (let (($x1813 (= cell_4_9 2)))
 (let (($x1313 (= cell_4_9 1)))
 (or $x1313 $x1813 $x2031 $x3980 $x2258 $x2476 $x3965 $x1133 $x87)))))))))))
(assert
 (let (($x1951 (= cell_5_9 9)))
 (let (($x560 (= cell_5_9 8)))
 (let (($x1997 (= cell_5_9 7)))
 (let (($x2764 (= cell_5_9 6)))
 (let (($x2545 (= cell_5_9 5)))
 (let (($x2540 (= cell_5_9 4)))
 (let (($x276 (= cell_5_9 3)))
 (let (($x3062 (= cell_5_9 2)))
 (let (($x2661 (= cell_5_9 1)))
 (or $x2661 $x3062 $x276 $x2540 $x2545 $x2764 $x1997 $x560 $x1951)))))))))))
(assert
 (let (($x1935 (= cell_6_9 1)))
 (or $x1935 (= cell_6_9 2) (= cell_6_9 3) (= cell_6_9 4) (= cell_6_9 5) (= cell_6_9 6) (= cell_6_9 7) (= cell_6_9 8) (= cell_6_9 9))))
(assert
 (let (($x1705 (= cell_7_9 9)))
 (let (($x3530 (= cell_7_9 8)))
 (let (($x2187 (= cell_7_9 7)))
 (let (($x189 (= cell_7_9 6)))
 (let (($x1506 (= cell_7_9 5)))
 (let (($x2164 (= cell_7_9 4)))
 (let (($x402 (= cell_7_9 3)))
 (let (($x2467 (= cell_7_9 2)))
 (let (($x2244 (= cell_7_9 1)))
 (or $x2244 $x2467 $x402 $x2164 $x1506 $x189 $x2187 $x3530 $x1705)))))))))))
(assert
 (let (($x2367 (= cell_8_9 1)))
 (or $x2367 (= cell_8_9 2) (= cell_8_9 3) (= cell_8_9 4) (= cell_8_9 5) (= cell_8_9 6) (= cell_8_9 7) (= cell_8_9 8) (= cell_8_9 9))))
(assert
 (let (($x1170 (= cell_9_9 1)))
 (or $x1170 (= cell_9_9 2) (= cell_9_9 3) (= cell_9_9 4) (= cell_9_9 5) (= cell_9_9 6) (= cell_9_9 7) (= cell_9_9 8) (= cell_9_9 9))))
(assert
 (and (distinct cell_1_1 cell_1_2 cell_1_3 cell_1_4 cell_1_5 cell_1_6 cell_1_7 cell_1_8 cell_1_9) true))
(assert
 (and (distinct cell_2_1 cell_2_2 cell_2_3 cell_2_4 cell_2_5 cell_2_6 cell_2_7 cell_2_8 cell_2_9) true))
(assert
 (and (distinct cell_3_1 cell_3_2 cell_3_3 cell_3_4 cell_3_5 cell_3_6 cell_3_7 cell_3_8 cell_3_9) true))
(assert
 (and (distinct cell_4_1 cell_4_2 cell_4_3 cell_4_4 cell_4_5 cell_4_6 cell_4_7 cell_4_8 cell_4_9) true))
(assert
 (and (distinct cell_5_1 cell_5_2 cell_5_3 cell_5_4 cell_5_5 cell_5_6 cell_5_7 cell_5_8 cell_5_9) true))
(assert
 (and (distinct cell_6_1 cell_6_2 cell_6_3 cell_6_4 cell_6_5 cell_6_6 cell_6_7 cell_6_8 cell_6_9) true))
(assert
 (and (distinct cell_7_1 cell_7_2 cell_7_3 cell_7_4 cell_7_5 cell_7_6 cell_7_7 cell_7_8 cell_7_9) true))
(assert
 (and (distinct cell_8_1 cell_8_2 cell_8_3 cell_8_4 cell_8_5 cell_8_6 cell_8_7 cell_8_8 cell_8_9) true))
(assert
 (and (distinct cell_9_1 cell_9_2 cell_9_3 cell_9_4 cell_9_5 cell_9_6 cell_9_7 cell_9_8 cell_9_9) true))
(assert
 (and (distinct cell_1_1 cell_2_1 cell_3_1 cell_4_1 cell_5_1 cell_6_1 cell_7_1 cell_8_1 cell_9_1) true))
(assert
 (and (distinct cell_1_2 cell_2_2 cell_3_2 cell_4_2 cell_5_2 cell_6_2 cell_7_2 cell_8_2 cell_9_2) true))
(assert
 (and (distinct cell_1_3 cell_2_3 cell_3_3 cell_4_3 cell_5_3 cell_6_3 cell_7_3 cell_8_3 cell_9_3) true))
(assert
 (and (distinct cell_1_4 cell_2_4 cell_3_4 cell_4_4 cell_5_4 cell_6_4 cell_7_4 cell_8_4 cell_9_4) true))
(assert
 (and (distinct cell_1_5 cell_2_5 cell_3_5 cell_4_5 cell_5_5 cell_6_5 cell_7_5 cell_8_5 cell_9_5) true))
(assert
 (and (distinct cell_1_6 cell_2_6 cell_3_6 cell_4_6 cell_5_6 cell_6_6 cell_7_6 cell_8_6 cell_9_6) true))
(assert
 (and (distinct cell_1_7 cell_2_7 cell_3_7 cell_4_7 cell_5_7 cell_6_7 cell_7_7 cell_8_7 cell_9_7) true))
(assert
 (and (distinct cell_1_8 cell_2_8 cell_3_8 cell_4_8 cell_5_8 cell_6_8 cell_7_8 cell_8_8 cell_9_8) true))
(assert
 (and (distinct cell_1_9 cell_2_9 cell_3_9 cell_4_9 cell_5_9 cell_6_9 cell_7_9 cell_8_9 cell_9_9) true))
(assert
 (and (distinct cell_1_1 cell_1_2 cell_1_3 cell_2_1 cell_2_2 cell_2_3 cell_3_1 cell_3_2 cell_3_3) true))
(assert
 (and (distinct cell_1_4 cell_1_5 cell_1_6 cell_2_4 cell_2_5 cell_2_6 cell_3_4 cell_3_5 cell_3_6) true))
(assert
 (and (distinct cell_1_7 cell_1_8 cell_1_9 cell_2_7 cell_2_8 cell_2_9 cell_3_7 cell_3_8 cell_3_9) true))
(assert
 (and (distinct cell_4_1 cell_4_2 cell_4_3 cell_5_1 cell_5_2 cell_5_3 cell_6_1 cell_6_2 cell_6_3) true))
(assert
 (and (distinct cell_4_4 cell_4_5 cell_4_6 cell_5_4 cell_5_5 cell_5_6 cell_6_4 cell_6_5 cell_6_6) true))
(assert
 (and (distinct cell_4_7 cell_4_8 cell_4_9 cell_5_7 cell_5_8 cell_5_9 cell_6_7 cell_6_8 cell_6_9) true))
(assert
 (and (distinct cell_7_1 cell_7_2 cell_7_3 cell_8_1 cell_8_2 cell_8_3 cell_9_1 cell_9_2 cell_9_3) true))
(assert
 (and (distinct cell_7_4 cell_7_5 cell_7_6 cell_8_4 cell_8_5 cell_8_6 cell_9_4 cell_9_5 cell_9_6) true))
(assert
 (and (distinct cell_7_7 cell_7_8 cell_7_9 cell_8_7 cell_8_8 cell_8_9 cell_9_7 cell_9_8 cell_9_9) true))
(assert
 (let (($x784 (and (distinct cell_5_9 cell_6_8 cell_7_7 cell_8_6) true)))
 (let (($x1098 (and (distinct cell_2_9 cell_3_8 cell_4_7 cell_5_6 cell_6_5 cell_7_4 cell_8_3 cell_9_2) true)))
 (let (($x2093 (and (distinct cell_1_8 cell_2_7 cell_3_6 cell_4_5 cell_5_4 cell_6_3 cell_7_2 cell_8_1) true)))
 (let (($x4132 (and (distinct cell_1_5 cell_2_4 cell_3_3 cell_4_2) true)))
 (let (($x313 (and (distinct cell_5_1 cell_6_2 cell_7_3 cell_8_4) true)))
 (let (($x3438 (and (distinct cell_2_1 cell_3_2 cell_4_3 cell_5_4 cell_6_5 cell_7_6 cell_8_7 cell_9_8) true)))
 (let (($x1693 (and (distinct cell_1_2 cell_2_3 cell_3_4 cell_4_5 cell_5_6 cell_6_7 cell_7_8 cell_8_9) true)))
 (let (($x1214 (and (distinct cell_1_5 cell_2_6 cell_3_7 cell_4_8) true)))
 (and $x1214 $x1693 $x3438 $x313 $x4132 $x2093 $x1098 $x784))))))))))
(assert
 (= cell_4_9 2))
(check-sat)
